letting n =  10
letting blocks =  [[1, 2], [1, 4], [1, 7], [2, 8], [2, 10], [3, 3], [3, 4], [3, 5], [3, 7], [4, 6], [4, 9], [5, 1], [6, 1], [6, 8], [6, 9], [7, 1], [7, 3], [7, 4], [7, 5], [7, 10], [8, 1], [8, 5], [8, 6], [8, 7], [8, 9], [8, 10], [9, 1], [9, 4], [9, 10], [10, 3], [10, 7], [10, 9]]
